DIMENSION: 26
EDGE_WEIGHT_TYPE: EXPLICIT
EDGE_WEIGHT_FORMAT: FULL_MATRIX
EDGE_WEIGHT_SECTION:
32767 90 32 32767 73 72 98 32767 31 32767 32767 32767 88 100 32767 32767 32767 85 84 19 32767 60 84 32767 8 32767 
90 32767 32767 32767 32767 82 5 32767 32767 32767 39 32767 79 32767 15 32767 29 32767 81 32767 17 32767 24 88 32767 32767 
32 32767 32767 32767 20 32767 32767 72 90 40 96 32767 32767 32 83 94 97 93 32767 39 34 32767 32767 32767 30 32767 
32767 32767 32767 32767 1 32767 32767 82 32767 32767 32767 99 32767 33 1 32767 32767 25 32767 63 32767 32767 59 32767 88 32767 
73 32767 20 1 32767 32767 32767 33 32767 93 39 32767 32767 32767 32767 60 32767 32767 32767 32767 32767 9 88 32767 46 69 
72 82 32767 32767 32767 32767 32767 32767 76 48 32767 32767 32767 8 58 32767 74 32767 32767 32767 32767 32767 32767 38 32767 32767 
98 5 32767 32767 32767 32767 32767 2 32767 22 32767 85 32767 32 32767 32767 37 32767 32767 32767 32767 32767 32767 42 32767 18 
32767 32767 72 82 33 32767 2 32767 32767 7 42 61 67 32767 72 73 32767 32767 32767 74 58 66 32767 32767 67 26 
31 32767 90 32767 32767 76 32767 32767 32767 32767 32767 32767 32767 32767 90 32767 46 32767 97 80 32767 32767 4 7 32767 32767 
32767 32767 40 32767 93 48 22 7 32767 32767 32767 60 32767 32767 32767 32767 32767 84 94 28 32767 32767 32767 28 32767 32767 
32767 39 96 32767 39 32767 32767 42 32767 32767 32767 46 32767 32767 32767 32767 32767 32767 32767 32767 32767 66 32767 32767 73 89 
32767 32767 32767 99 32767 32767 85 61 32767 60 46 32767 32767 82 32767 32767 32767 32767 32767 32767 32767 32767 64 32767 67 32767 
88 79 32767 32767 32767 32767 32767 67 32767 32767 32767 32767 32767 32767 32767 32767 32767 91 32767 32767 69 63 32767 32767 32767 4 
100 32767 32 33 32767 8 32 32767 32767 32767 32767 82 32767 32767 32767 73 28 32767 94 32767 6 32767 44 33 32767 32767 
32767 15 83 1 32767 58 32767 72 90 32767 32767 32767 32767 32767 32767 32767 32767 95 32767 77 32767 32767 32767 32767 55 25 
32767 32767 94 32767 60 32767 32767 73 32767 32767 32767 32767 32767 73 32767 32767 49 32767 32767 98 32767 3 32767 98 29 32767 
32767 29 97 32767 32767 74 37 32767 46 32767 32767 32767 32767 28 32767 49 32767 32767 32767 15 32767 100 32767 32767 62 32767 
85 32767 93 25 32767 32767 32767 32767 32767 84 32767 32767 91 32767 95 32767 32767 32767 32767 32767 32767 32767 32767 32767 32767 32767 
84 81 32767 32767 32767 32767 32767 32767 97 94 32767 32767 32767 94 32767 32767 32767 32767 32767 32767 32767 32767 80 32767 32767 99 
19 32767 39 63 32767 32767 32767 74 80 28 32767 32767 32767 32767 77 98 15 32767 32767 32767 32767 32767 32767 32767 62 42 
32767 17 34 32767 32767 32767 32767 58 32767 32767 32767 32767 69 6 32767 32767 32767 32767 32767 32767 32767 32767 79 16 32767 32767 
60 32767 32767 32767 9 32767 32767 66 32767 32767 66 32767 63 32767 32767 3 100 32767 32767 32767 32767 32767 31 76 27 75 
84 24 32767 59 88 32767 32767 32767 4 32767 32767 64 32767 44 32767 32767 32767 32767 80 32767 79 31 32767 97 83 58 
32767 88 32767 32767 32767 38 42 32767 7 28 32767 32767 32767 33 32767 98 32767 32767 32767 32767 16 76 97 32767 32767 32767 
8 32767 30 88 46 32767 32767 67 32767 32767 73 67 32767 32767 55 29 62 32767 32767 62 32767 27 83 32767 32767 1 
32767 32767 32767 32767 69 32767 18 26 32767 32767 89 32767 4 32767 25 32767 32767 32767 99 42 32767 75 58 32767 1 32767 
EOF